% Archivo de datos generado automáticamente
% MinExt - Minimización del Extremismo

n = 100;
m = 7;

% Distribución inicial de personas por opinión
p = [0, 0, 5, 85, 5, 0, 0];

% Valores de extremismo por opinión
ext = [0.0, 0.1, 0.3, 0.9, 0.3, 0.1, 0.0];

% Costos extra por mover hacia opinión inicialmente vacía
ce = [50.0, 30.0, 20.0, 100.0, 20.0, 30.0, 50.0];

% Matriz de costos de movimiento entre opiniones
c = array2d(1..m, 1..m, [0.0, 10.5, 8.2, 15.7, 12.3, 18.4, 25.6, 12.8, 0.0, 6.4, 9.1, 11.7, 14.2, 20.3, 9.7, 7.3, 0.0, 4.8, 8.5, 12.9, 16.8, 18.2, 11.4, 5.9, 0.0, 3.2, 7.6, 13.5, 14.6, 13.1, 9.8, 4.1, 0.0, 5.4, 11.2, 22.9, 16.7, 14.2, 8.3, 6.7, 0.0, 8.9, 28.4, 24.1, 19.5, 15.8, 12.4, 9.1, 0.0]);

% Restricciones de recursos
ct = 450.0;
maxM = 25;
